40
    32    47    97    22    17    12    39    52    12    68    78    90    13    23    14    56    45    35    23    73    62    19    60    69    43    40    56    75    98    17    22    22    65    23    47    48     8    84    99    92
     2     9     3     4     3     4     9     1     4     2     5     4     8     7     9     9    10     7     7     5    10     5     1    10     8     4     9     5     4     8     7     9     3     1     8     4     1     1     9     3
   538   436   960   472   537   888  1115  1066   574   817   643   599   663   834   448   886   923   831   701   509   755   531   960   464   660   401   665  1115   657   693   772  1029   587   843   467   745   803   780  1062   851
